
(set-logic HORN)
(define-fun Z_800 () Int 0)
(define-fun S_226 ((x Int)) Int (+ x 1))
(declare-fun diseqInt (Int Int) Bool)
(declare-fun unS_285 (Int Int) Bool)
(declare-fun isZ_215 (Int) Bool)
(declare-fun isS_215 (Int) Bool)
(assert (forall ((x_21521 Int))
	(unS_285 x_21521 (S_226 x_21521))))
(assert (isZ_215 Z_800))
(assert (forall ((x_21523 Int))
	(isS_215 (S_226 x_21523))))
(assert (forall ((x_21524 Int))
	(diseqInt Z_800 (S_226 x_21524))))
(assert (forall ((x_21525 Int))
	(diseqInt (S_226 x_21525) Z_800)))
(assert (forall ((x_21526 Int) (x_21527 Int))
	(=> (diseqInt x_21526 x_21527) (diseqInt (S_226 x_21526) (S_226 x_21527)))))
(declare-fun add_150 (Int Int Int) Bool)
(declare-fun minus_145 (Int Int Int) Bool)
(declare-fun le_142 (Int Int) Bool)
(declare-fun ge_142 (Int Int) Bool)
(declare-fun lt_146 (Int Int) Bool)
(declare-fun gt_143 (Int Int) Bool)
(declare-fun mult_142 (Int Int Int) Bool)
(declare-fun div_142 (Int Int Int) Bool)
(declare-fun mod_142 (Int Int Int) Bool)
(assert (forall ((y_798 Int))
	(add_150 y_798 Z_800 y_798)))
(assert (forall ((x_21519 Int) (y_798 Int) (r_170 Int))
	(=> (add_150 r_170 x_21519 y_798) (add_150 (S_226 r_170) (S_226 x_21519) y_798))))
(assert (forall ((y_798 Int))
	(minus_145 Z_800 Z_800 y_798)))
(assert (forall ((x_21519 Int) (y_798 Int) (r_170 Int))
	(=> (minus_145 r_170 x_21519 y_798) (minus_145 (S_226 r_170) (S_226 x_21519) y_798))))
(assert (forall ((y_798 Int))
	(le_142 Z_800 y_798)))
(assert (forall ((x_21519 Int) (y_798 Int))
	(=> (le_142 x_21519 y_798) (le_142 (S_226 x_21519) (S_226 y_798)))))
(assert (forall ((y_798 Int))
	(ge_142 y_798 Z_800)))
(assert (forall ((x_21519 Int) (y_798 Int))
	(=> (ge_142 x_21519 y_798) (ge_142 (S_226 x_21519) (S_226 y_798)))))
(assert (forall ((y_798 Int))
	(lt_146 Z_800 (S_226 y_798))))
(assert (forall ((x_21519 Int) (y_798 Int))
	(=> (lt_146 x_21519 y_798) (lt_146 (S_226 x_21519) (S_226 y_798)))))
(assert (forall ((y_798 Int))
	(gt_143 (S_226 y_798) Z_800)))
(assert (forall ((x_21519 Int) (y_798 Int))
	(=> (gt_143 x_21519 y_798) (gt_143 (S_226 x_21519) (S_226 y_798)))))
(assert (forall ((y_798 Int))
	(mult_142 Z_800 Z_800 y_798)))
(assert (forall ((x_21519 Int) (y_798 Int) (r_170 Int) (z_801 Int))
	(=> (and (mult_142 r_170 x_21519 y_798) (add_150 z_801 r_170 y_798)) (mult_142 z_801 (S_226 x_21519) y_798))))
(assert (forall ((x_21519 Int) (y_798 Int))
	(=> (lt_146 x_21519 y_798) (div_142 Z_800 x_21519 y_798))))
(assert (forall ((x_21519 Int) (y_798 Int) (r_170 Int) (z_801 Int))
	(=> (and (ge_142 x_21519 y_798) (minus_145 z_801 x_21519 y_798) (div_142 r_170 z_801 y_798)) (div_142 (S_226 r_170) x_21519 y_798))))
(assert (forall ((x_21519 Int) (y_798 Int))
	(=> (lt_146 x_21519 y_798) (mod_142 x_21519 x_21519 y_798))))
(assert (forall ((x_21519 Int) (y_798 Int) (r_170 Int) (z_801 Int))
	(=> (and (ge_142 x_21519 y_798) (minus_145 z_801 x_21519 y_798) (mod_142 r_170 z_801 y_798)) (mod_142 r_170 x_21519 y_798))))
(declare-datatypes ((Bool_142 0)) (((false_142) (true_142))))
(declare-fun diseqBool_62 (Bool_142 Bool_142) Bool)
(declare-fun isfalse_62 (Bool_142) Bool)
(declare-fun istrue_62 (Bool_142) Bool)
(assert (isfalse_62 false_142))
(assert (istrue_62 true_142))
(assert (diseqBool_62 false_142 true_142))
(assert (diseqBool_62 true_142 false_142))
(declare-fun and_142 (Bool_142 Bool_142 Bool_142) Bool)
(declare-fun or_144 (Bool_142 Bool_142 Bool_142) Bool)
(declare-fun hence_142 (Bool_142 Bool_142 Bool_142) Bool)
(declare-fun not_143 (Bool_142 Bool_142) Bool)
(assert (and_142 false_142 false_142 false_142))
(assert (and_142 false_142 true_142 false_142))
(assert (and_142 false_142 false_142 true_142))
(assert (and_142 true_142 true_142 true_142))
(assert (or_144 false_142 false_142 false_142))
(assert (or_144 true_142 true_142 false_142))
(assert (or_144 true_142 false_142 true_142))
(assert (or_144 true_142 true_142 true_142))
(assert (hence_142 true_142 false_142 false_142))
(assert (hence_142 false_142 true_142 false_142))
(assert (hence_142 true_142 false_142 true_142))
(assert (hence_142 true_142 true_142 true_142))
(assert (not_143 true_142 false_142))
(assert (not_143 false_142 true_142))
(declare-datatypes ((pair_34 0)) (((pair_35 (projpair_68 Int) (projpair_69 Bool_142)))))
(declare-fun diseqpair_17 (pair_34 pair_34) Bool)
(declare-fun projpair_70 (Int pair_34) Bool)
(declare-fun projpair_71 (Bool_142 pair_34) Bool)
(declare-fun ispair_17 (pair_34) Bool)
(assert (forall ((x_21530 Int) (x_21531 Bool_142))
	(projpair_70 x_21530 (pair_35 x_21530 x_21531))))
(assert (forall ((x_21530 Int) (x_21531 Bool_142))
	(projpair_71 x_21531 (pair_35 x_21530 x_21531))))
(assert (forall ((x_21533 Int) (x_21534 Bool_142))
	(ispair_17 (pair_35 x_21533 x_21534))))
(assert (forall ((x_21535 Int) (x_21536 Bool_142) (x_21537 Int) (x_21538 Bool_142))
	(=> (diseqInt x_21535 x_21537) (diseqpair_17 (pair_35 x_21535 x_21536) (pair_35 x_21537 x_21538)))))
(assert (forall ((x_21535 Int) (x_21536 Bool_142) (x_21537 Int) (x_21538 Bool_142))
	(=> (diseqBool_62 x_21536 x_21538) (diseqpair_17 (pair_35 x_21535 x_21536) (pair_35 x_21537 x_21538)))))
(declare-datatypes ((list_105 0)) (((nil_116) (cons_105 (head_210 Bool_142) (tail_210 list_105)))))
(declare-fun diseqlist_105 (list_105 list_105) Bool)
(declare-fun head_213 (Bool_142 list_105) Bool)
(declare-fun tail_213 (list_105 list_105) Bool)
(declare-fun isnil_116 (list_105) Bool)
(declare-fun iscons_105 (list_105) Bool)
(assert (forall ((x_21540 Bool_142) (x_21541 list_105))
	(head_213 x_21540 (cons_105 x_21540 x_21541))))
(assert (forall ((x_21540 Bool_142) (x_21541 list_105))
	(tail_213 x_21541 (cons_105 x_21540 x_21541))))
(assert (isnil_116 nil_116))
(assert (forall ((x_21543 Bool_142) (x_21544 list_105))
	(iscons_105 (cons_105 x_21543 x_21544))))
(assert (forall ((x_21545 Bool_142) (x_21546 list_105))
	(diseqlist_105 nil_116 (cons_105 x_21545 x_21546))))
(assert (forall ((x_21547 Bool_142) (x_21548 list_105))
	(diseqlist_105 (cons_105 x_21547 x_21548) nil_116)))
(assert (forall ((x_21549 Bool_142) (x_21550 list_105) (x_21551 Bool_142) (x_21552 list_105))
	(=> (diseqBool_62 x_21549 x_21551) (diseqlist_105 (cons_105 x_21549 x_21550) (cons_105 x_21551 x_21552)))))
(assert (forall ((x_21549 Bool_142) (x_21550 list_105) (x_21551 Bool_142) (x_21552 list_105))
	(=> (diseqlist_105 x_21550 x_21552) (diseqlist_105 (cons_105 x_21549 x_21550) (cons_105 x_21551 x_21552)))))
(declare-datatypes ((list_106 0)) (((nil_117) (cons_106 (head_211 pair_34) (tail_211 list_106)))))
(declare-fun diseqlist_106 (list_106 list_106) Bool)
(declare-fun head_214 (pair_34 list_106) Bool)
(declare-fun tail_214 (list_106 list_106) Bool)
(declare-fun isnil_117 (list_106) Bool)
(declare-fun iscons_106 (list_106) Bool)
(assert (forall ((x_21554 pair_34) (x_21555 list_106))
	(head_214 x_21554 (cons_106 x_21554 x_21555))))
(assert (forall ((x_21554 pair_34) (x_21555 list_106))
	(tail_214 x_21555 (cons_106 x_21554 x_21555))))
(assert (isnil_117 nil_117))
(assert (forall ((x_21557 pair_34) (x_21558 list_106))
	(iscons_106 (cons_106 x_21557 x_21558))))
(assert (forall ((x_21559 pair_34) (x_21560 list_106))
	(diseqlist_106 nil_117 (cons_106 x_21559 x_21560))))
(assert (forall ((x_21561 pair_34) (x_21562 list_106))
	(diseqlist_106 (cons_106 x_21561 x_21562) nil_117)))
(assert (forall ((x_21563 pair_34) (x_21564 list_106) (x_21565 pair_34) (x_21566 list_106))
	(=> (diseqpair_17 x_21563 x_21565) (diseqlist_106 (cons_106 x_21563 x_21564) (cons_106 x_21565 x_21566)))))
(assert (forall ((x_21563 pair_34) (x_21564 list_106) (x_21565 pair_34) (x_21566 list_106))
	(=> (diseqlist_106 x_21564 x_21566) (diseqlist_106 (cons_106 x_21563 x_21564) (cons_106 x_21565 x_21566)))))
(declare-datatypes ((list_107 0)) (((nil_118) (cons_107 (head_212 list_106) (tail_212 list_107)))))
(declare-fun diseqlist_107 (list_107 list_107) Bool)
(declare-fun head_215 (list_106 list_107) Bool)
(declare-fun tail_215 (list_107 list_107) Bool)
(declare-fun isnil_118 (list_107) Bool)
(declare-fun iscons_107 (list_107) Bool)
(assert (forall ((x_21568 list_106) (x_21569 list_107))
	(head_215 x_21568 (cons_107 x_21568 x_21569))))
(assert (forall ((x_21568 list_106) (x_21569 list_107))
	(tail_215 x_21569 (cons_107 x_21568 x_21569))))
(assert (isnil_118 nil_118))
(assert (forall ((x_21571 list_106) (x_21572 list_107))
	(iscons_107 (cons_107 x_21571 x_21572))))
(assert (forall ((x_21573 list_106) (x_21574 list_107))
	(diseqlist_107 nil_118 (cons_107 x_21573 x_21574))))
(assert (forall ((x_21575 list_106) (x_21576 list_107))
	(diseqlist_107 (cons_107 x_21575 x_21576) nil_118)))
(assert (forall ((x_21577 list_106) (x_21578 list_107) (x_21579 list_106) (x_21580 list_107))
	(=> (diseqlist_106 x_21577 x_21579) (diseqlist_107 (cons_107 x_21577 x_21578) (cons_107 x_21579 x_21580)))))
(assert (forall ((x_21577 list_106) (x_21578 list_107) (x_21579 list_106) (x_21580 list_107))
	(=> (diseqlist_107 x_21578 x_21580) (diseqlist_107 (cons_107 x_21577 x_21578) (cons_107 x_21579 x_21580)))))
(declare-datatypes ((Form_0 0)) (((x_21437 (proj_0 Form_0) (proj_1 Form_0)) (Not_142 (projNot_0 Form_0)) (Var_0 (projVar_0 Int)))))
(declare-fun diseqForm_0 (Form_0 Form_0) Bool)
(declare-fun proj_2 (Form_0 Form_0) Bool)
(declare-fun proj_3 (Form_0 Form_0) Bool)
(declare-fun projNot_1 (Form_0 Form_0) Bool)
(declare-fun projVar_1 (Int Form_0) Bool)
(declare-fun isx_6 (Form_0) Bool)
(declare-fun isNot_0 (Form_0) Bool)
(declare-fun isVar_0 (Form_0) Bool)
(assert (forall ((x_21581 Form_0) (x_21582 Form_0))
	(proj_2 x_21581 (x_21437 x_21581 x_21582))))
(assert (forall ((x_21581 Form_0) (x_21582 Form_0))
	(proj_3 x_21582 (x_21437 x_21581 x_21582))))
(assert (forall ((x_21584 Form_0))
	(projNot_1 x_21584 (Not_142 x_21584))))
(assert (forall ((x_21586 Int))
	(projVar_1 x_21586 (Var_0 x_21586))))
(assert (forall ((x_21588 Form_0) (x_21589 Form_0))
	(isx_6 (x_21437 x_21588 x_21589))))
(assert (forall ((x_21590 Form_0))
	(isNot_0 (Not_142 x_21590))))
(assert (forall ((x_21591 Int))
	(isVar_0 (Var_0 x_21591))))
(assert (forall ((x_21592 Form_0) (x_21593 Form_0) (x_21594 Form_0))
	(diseqForm_0 (x_21437 x_21592 x_21593) (Not_142 x_21594))))
(assert (forall ((x_21595 Form_0) (x_21596 Form_0) (x_21597 Int))
	(diseqForm_0 (x_21437 x_21595 x_21596) (Var_0 x_21597))))
(assert (forall ((x_21598 Form_0) (x_21599 Form_0) (x_21600 Form_0))
	(diseqForm_0 (Not_142 x_21598) (x_21437 x_21599 x_21600))))
(assert (forall ((x_21601 Int) (x_21602 Form_0) (x_21603 Form_0))
	(diseqForm_0 (Var_0 x_21601) (x_21437 x_21602 x_21603))))
(assert (forall ((x_21604 Form_0) (x_21605 Int))
	(diseqForm_0 (Not_142 x_21604) (Var_0 x_21605))))
(assert (forall ((x_21606 Int) (x_21607 Form_0))
	(diseqForm_0 (Var_0 x_21606) (Not_142 x_21607))))
(assert (forall ((x_21608 Form_0) (x_21609 Form_0) (x_21610 Form_0) (x_21611 Form_0))
	(=> (diseqForm_0 x_21608 x_21610) (diseqForm_0 (x_21437 x_21608 x_21609) (x_21437 x_21610 x_21611)))))
(assert (forall ((x_21608 Form_0) (x_21609 Form_0) (x_21610 Form_0) (x_21611 Form_0))
	(=> (diseqForm_0 x_21609 x_21611) (diseqForm_0 (x_21437 x_21608 x_21609) (x_21437 x_21610 x_21611)))))
(assert (forall ((x_21612 Form_0) (x_21613 Form_0))
	(=> (diseqForm_0 x_21612 x_21613) (diseqForm_0 (Not_142 x_21612) (Not_142 x_21613)))))
(assert (forall ((x_21614 Int) (x_21615 Int))
	(=> (diseqInt x_21614 x_21615) (diseqForm_0 (Var_0 x_21614) (Var_0 x_21615)))))
(declare-fun or_143 (Bool_142 list_105) Bool)
(assert (forall ((x_21456 Bool_142) (x_21457 Bool_142) (y_786 Bool_142) (xs_248 list_105))
	(=> (and (or_143 x_21457 xs_248) (or_144 x_21456 y_786 x_21457)) (or_143 x_21456 (cons_105 y_786 xs_248)))))
(assert (or_143 false_142 nil_116))
(declare-fun models_0 (list_106 Int list_106) Bool)
(assert (forall ((x_21460 list_106) (x_21440 Int) (y_788 Bool_142) (xs_249 list_106) (x_21439 Int))
	(=> (and (diseqInt x_21439 x_21440) (models_0 x_21460 x_21439 xs_249)) (models_0 (cons_106 (pair_35 x_21440 y_788) x_21460) x_21439 (cons_106 (pair_35 x_21440 y_788) xs_249)))))
(assert (forall ((x_21461 list_106) (y_788 Bool_142) (xs_249 list_106) (x_21439 Int))
	(=> (models_0 x_21461 x_21439 xs_249) (models_0 x_21461 x_21439 (cons_106 (pair_35 x_21439 y_788) xs_249)))))
(assert (forall ((x_21439 Int))
	(models_0 nil_117 x_21439 nil_117)))
(declare-fun models_1 (list_105 Int list_106) Bool)
(assert (forall ((x_21464 list_105) (y_790 Int) (x_21442 list_106) (x_21441 Int))
	(=> (models_1 x_21464 x_21441 x_21442) (models_1 x_21464 x_21441 (cons_106 (pair_35 y_790 true_142) x_21442)))))
(assert (forall ((x_21467 list_105) (x_21442 list_106) (x_21441 Int))
	(=> (models_1 x_21467 x_21441 x_21442) (models_1 (cons_105 true_142 x_21467) x_21441 (cons_106 (pair_35 x_21441 false_142) x_21442)))))
(assert (forall ((x_21469 list_105) (y_790 Int) (x_21442 list_106) (x_21441 Int))
	(=> (and (diseqInt x_21441 y_790) (models_1 x_21469 x_21441 x_21442)) (models_1 (cons_105 false_142 x_21469) x_21441 (cons_106 (pair_35 y_790 false_142) x_21442)))))
(assert (forall ((x_21441 Int))
	(models_1 nil_116 x_21441 nil_117)))
(declare-fun models_2 (list_105 Int list_106) Bool)
(assert (forall ((x_21472 list_105) (x_21445 list_106) (x_21444 Int))
	(=> (models_2 x_21472 x_21444 x_21445) (models_2 (cons_105 true_142 x_21472) x_21444 (cons_106 (pair_35 x_21444 true_142) x_21445)))))
(assert (forall ((x_21474 list_105) (y_792 Int) (x_21445 list_106) (x_21444 Int))
	(=> (and (diseqInt x_21444 y_792) (models_2 x_21474 x_21444 x_21445)) (models_2 (cons_105 false_142 x_21474) x_21444 (cons_106 (pair_35 y_792 true_142) x_21445)))))
(assert (forall ((x_21475 list_105) (y_792 Int) (x_21445 list_106) (x_21444 Int))
	(=> (models_2 x_21475 x_21444 x_21445) (models_2 x_21475 x_21444 (cons_106 (pair_35 y_792 false_142) x_21445)))))
(assert (forall ((x_21444 Int))
	(models_2 nil_116 x_21444 nil_117)))
(declare-fun x_21447 (list_107 list_107 list_107) Bool)
(assert (forall ((x_21479 list_107) (z_795 list_106) (xs_250 list_107) (y_793 list_107))
	(=> (x_21447 x_21479 xs_250 y_793) (x_21447 (cons_107 z_795 x_21479) (cons_107 z_795 xs_250) y_793))))
(assert (forall ((x_21480 list_107))
	(x_21447 x_21480 nil_118 x_21480)))
(declare-fun models_3 (list_107 Form_0 list_106) Bool)
(declare-fun models_4 (list_107 Form_0 list_107) Bool)
(declare-fun models_5 (list_107 list_107 Form_0 list_107) Bool)
(assert (forall ((x_21484 list_106) (x_21481 list_105) (x_21450 Int) (y_794 list_106))
	(=> (and (models_0 x_21484 x_21450 y_794) (models_1 x_21481 x_21450 y_794) (or_143 false_142 x_21481)) (models_3 (cons_107 (cons_106 (pair_35 x_21450 true_142) x_21484) nil_118) (Var_0 x_21450) y_794))))
(assert (forall ((x_21485 list_105) (x_21450 Int) (y_794 list_106))
	(=> (and (models_1 x_21485 x_21450 y_794) (or_143 true_142 x_21485)) (models_3 nil_118 (Var_0 x_21450) y_794))))
(assert (forall ((x_21491 list_106) (x_21488 list_105) (x_21451 Int) (y_794 list_106))
	(=> (and (models_0 x_21491 x_21451 y_794) (models_2 x_21488 x_21451 y_794) (or_143 false_142 x_21488)) (models_3 (cons_107 (cons_106 (pair_35 x_21451 false_142) x_21491) nil_118) (Not_142 (Var_0 x_21451)) y_794))))
(assert (forall ((x_21492 list_105) (x_21451 Int) (y_794 list_106))
	(=> (and (models_2 x_21492 x_21451 y_794) (or_143 true_142 x_21492)) (models_3 nil_118 (Not_142 (Var_0 x_21451)) y_794))))
(assert (forall ((x_21495 list_107) (p_110 Form_0) (y_794 list_106))
	(=> (models_3 x_21495 p_110 y_794) (models_3 x_21495 (Not_142 (Not_142 p_110)) y_794))))
(assert (forall ((x_21497 list_107) (x_21498 list_107) (x_21499 list_107) (r_169 Form_0) (q_41 Form_0) (y_794 list_106))
	(=> (and (models_3 x_21498 (Not_142 r_169) y_794) (models_3 x_21499 (x_21437 r_169 (Not_142 q_41)) y_794) (x_21447 x_21497 x_21498 x_21499)) (models_3 x_21497 (Not_142 (x_21437 r_169 q_41)) y_794))))
(assert (forall ((x_21501 list_107) (x_21502 list_107) (p_111 Form_0) (q_42 Form_0) (y_794 list_106))
	(=> (and (models_3 x_21502 p_111 y_794) (models_4 x_21501 q_42 x_21502)) (models_3 x_21501 (x_21437 p_111 q_42) y_794))))
(assert (forall ((x_21504 list_107) (x_21505 list_107) (y_795 list_106) (z_797 list_107) (q_43 Form_0))
	(=> (and (models_3 x_21505 q_43 y_795) (models_5 x_21504 z_797 q_43 x_21505)) (models_4 x_21504 q_43 (cons_107 y_795 z_797)))))
(assert (forall ((q_43 Form_0))
	(models_4 nil_118 q_43 nil_118)))
(assert (forall ((x_21509 list_107) (z_798 list_106) (x_21454 list_107) (x_21453 list_107) (q_44 Form_0))
	(=> (models_5 x_21509 x_21453 q_44 x_21454) (models_5 (cons_107 z_798 x_21509) x_21453 q_44 (cons_107 z_798 x_21454)))))
(assert (forall ((x_21510 list_107) (x_21453 list_107) (q_44 Form_0))
	(=> (models_4 x_21510 q_44 x_21453) (models_5 x_21510 x_21453 q_44 nil_118))))
(declare-fun valid_0 (Bool_142 Form_0) Bool)
(assert (forall ((y_797 list_106) (z_799 list_107) (x_21455 Form_0))
	(=> (models_3 (cons_107 y_797 z_799) (Not_142 x_21455) nil_117) (valid_0 false_142 x_21455))))
(assert (forall ((x_21455 Form_0))
	(=> (models_3 nil_118 (Not_142 x_21455) nil_117) (valid_0 true_142 x_21455))))
(assert (forall ((x_21516 Bool_142) (x_21517 Bool_142) (p_112 Form_0) (q_45 Form_0))
	(=> (and true (diseqBool_62 x_21516 x_21517) (valid_0 x_21516 (x_21437 p_112 q_45)) (valid_0 x_21517 (x_21437 q_45 p_112))) false)))
(check-sat)
